ilp_joint_2/output/metamorphosis_ilp.lp
Maximize
 
Subject To
 constraint2_910: <= 1
 constraint2_911: <= 1
 constraint2_912: <= 1
 constraint2_913: <= 1
 constraint2_530: <= 1
 constraint2_531: <= 1
 constraint2_532: <= 1
 constraint2_533: <= 1
Bounds
End
