ilp_joint_2/output/metamorphosis_ilp.mps
NAME metamorphosis_srl_ilp
* Max problem is converted into Min one
ROWS
 N  OBJ
 L  constraint2_910
 L  constraint2_911
 L  constraint2_912
 L  constraint2_913
 L  constraint2_530
 L  constraint2_531
 L  constraint2_532
 L  constraint2_533
COLUMNS
RHS
    RHS1      constraint2_910  1
    RHS1      constraint2_911  1
    RHS1      constraint2_912  1
    RHS1      constraint2_913  1
    RHS1      constraint2_530  1
    RHS1      constraint2_531  1
    RHS1      constraint2_532  1
    RHS1      constraint2_533  1
BOUNDS
ENDATA
