ilp_joint_2/output/metamorphosis_ilp.sol
# Solution for model metamorphosis_srl_ilp
# Objective value = 0
